100 10
566 516
441 813
501 598
842 695
657 646
413 119
555 736
322 877
809 197
810 383
526 61
403 351
708 831
332 167
226 123
232 263
555 80
814 713
368 482
267 697
279 260
259 443
160 139
672 815
380 310
851 394
625 523
321 617
404 308
388 751
294 503
730 766
521 737
546 382
279 319
616 760
646 894
451 386
666 548
519 801
390 275
429 163
592 811
824 578
419 555
576 166
446 532
451 702
287 594
367 664
395 876
613 576
522 565
404 803
545 622
918 522
304 613
604 659
862 388
669 973
283 458
540 866
414 442
509 430
783 683
845 736
819 515
169 864
819 397
806 835
433 292
731 289
354 267
331 159
228 254
494 106
530 733
847 268
149 389
657 867
862 360
511 155
648 512
817 57
204 287
731 868
614 791
604 750
403 528
508 803
475 430
664 460
432 144
296 508
189 908
319 374
480 708
555 800
533 696
474 465
